benchmarks/simple/array_easy.sl
(set-logic CHC_ALIA)

(synth-fun inv ((x_0 (Array Int Int)) (x_1 Int)) Bool)

(constraint (forall ((a (Array Int Int)) (i Int)) (=> (= i 0) (inv a i))))

(constraint (forall ((a (Array Int Int)) (i Int) (a1 (Array Int Int)) (i1 Int))
                    (let ((a!1 (and (inv a i) (= a1 (store a i 1)) (= i1 (+ i 1)))))
                         (=> a!1 (inv a1 i1)))))

(constraint (forall ((a (Array Int Int)) (i Int) (i1 Int))
                    (=> (and (inv a i) (<= 0 i1) (< i1 i) (< (select a i1) 0)) false)))

(check-synth)
